10
2147483647 71 25 75 93 88 9 93 84 38 
71 2147483647 39 54 86 1 1 9 21 15 
25 39 2147483647 77 5 11 51 21 62 13 
75 54 77 2147483647 6 90 30 96 53 12 
93 86 5 6 2147483647 23 26 93 9 25 
88 1 11 90 23 2147483647 46 21 55 63 
9 1 51 30 26 46 2147483647 97 71 46 
93 9 21 96 93 21 97 2147483647 83 98 
84 21 62 53 9 55 71 83 2147483647 51 
38 15 13 12 25 63 46 98 51 2147483647 
